(declare-const v0 Bool)
(declare-const v1 Bool)
(declare-const v2 Bool)
(declare-const v3 Bool)
(declare-const v4 Bool)
(assert (edge true (or (not v1) v2 (not v3))))
(assert (edge true v2))
(assert (edge (or v0 v2 v4) (or v0 v3)))
(assert (edge true (or (not v1) (not v0))))
(assert (edge (not v0) (or v1 v2 v3)))
(assert (not (edge (or (not v1) (not v2)) (not v3))))